750
750
525
525
525
524
524
524
524
524
523
523
523
523
522
522
522
521
521
521
520
520
520
519
518
518
518
517
516
515
513
512
512
511
511
511
511
510
510
510
509
509
509
508
508
508
507
507
506
506
506
505
505
503
503
503
503
502
502
502
501
501
501
500
500
500
499
499
498
498
498
497
494
492
491
491
490
490
489
489
488
486
486
486
486
485
484
484
484
484
483
483
483
483
482
482
481
481
480
480
480
480
479
479
479
477
476
475
475
475
474
472
472
472
471
471
471
470
470
470
469
468
468
468
467
467
465
465
465
465
465
464
464
463
463
462
462
462
461
459
459
458
458
458
458
458
456
456
456
456
456
456
455
455
455
454
453
453
452
451
451
450
450
449
448
448
448
447
447
447
446
445
444
444
444
443
443
442
442
440
440
438
438
438
438
437
434
434
434
433
433
433
433
432
431
431
430
430
429
429
429
428
428
428
428
427
425
424
424
423
422
422
422
422
422
422
422
421
420
420
419
419
419
418
417
417
417
417
417
416
416
416
415
414
414
413
413
413
412
412
412
410
410
409
409
409
409
409
408
408
408
407
407
407
407
406
404
403
402
401
400
400
399
399
399
398
397
396
396
394
394
394
393
392
392
391
391
391
390
389
388
388
387
386
384
383
383
383
382
381
380
380
380
380
379
379
379
379
379
379
378
378
378
378
378
378
378
377
377
376
375
374
374
373
372
371
370
370
369
369
369
368
368
367
367
366
365
365
364
364
364
364
363
361
361
361
361
361
361
360
359
359
359
358
358
357
357
357
356
356
356
355
355
355
355
354
354
354
353
353
352
351
350
350
348
348
348
348
347
346
346
345
345
345
344
344
344
344
344
343
342
341
341
341
340
339
338
338
337
336
335
334
334
332
331
330
329
329
328
328
328
328
327
327
327
326
326
325
325
325
325
324
324
324
324
323
321
320
318
318
317
317
317
317
317
316
316
316
315
315
314
314
314
313
313
312
311
311
310
310
309
309
308
308
308
307
307
306
306
304
304
303
302
301
301
300
299
299
299
298
298
297
295
294
293
293
292
292
291
290
290
290
290
290
290
287
287
286
286
286
286
285
285
285
285
284
283
283
283
282
282
281
281
281
279
278
278
277
276
276
275
275
275
275
275
272
272
271
271
270
270
270
268
268
268
267
267
266
266
266
266
264
264
264
263
263
263
262
262
262
261
260
260
259
258
258
258
257
257
256
256
255
253
253
253
252
252
251
250
250
249
247
247
246
246
245
245
245
244
243
243
242
242
241
240
240
239
238
238
237
235
235
234
234
234
233
232
231
231
231
230
230
230
229
228
228
228
228
227
227
226
226
226
225
224
223
222
221
221
220
220
220
218
217
217
217
217
217
217
217
216
216
216
216
216
216
215
214
214
213
213
212
212
212
211
210
210
210
210
210
209
209
209
209
209
209
209
208
207
207
207
207
207
206
206
205
205
203
202
201
201
201
201
201
200
200
200
200
199
199
197
197
197
195
194
194
194
194
193
193
191
191
191
189
187
187
187
186
186
186
186
185
185
183
182
182
182
182
182
182
182
181
181
181
180
179
179
179
177
177
176
176
176
176
176
175
175
173
172
171
170
170
170
169
168
168
168
167
167
167
167
167
166
166
166
164
164
163
163
162
161
160
160
160
159
159
157
157
157
156
155
154
154
154
153
153
153
153
152
152
151
151
